feasible solution found by trivial heuristic after 0.5 seconds, objective value 0.000000e+00
presolving:
(round 1, fast)       44280 del vars, 45154 del conss, 0 add conss, 1968 chg bounds, 1 chg sides, 294 chg coeffs, 0 upgd conss, 0 impls, 931 clqs
   (0.9s) running MILP presolver
   (1.5s) MILP presolver (2 rounds): 0 aggregations, 0 fixings, 0 bound changes
(round 2, exhaustive) 44280 del vars, 45808 del conss, 0 add conss, 1968 chg bounds, 379 chg sides, 294 chg coeffs, 0 upgd conss, 0 impls, 931 clqs
(round 3, exhaustive) 44280 del vars, 45808 del conss, 0 add conss, 1968 chg bounds, 379 chg sides, 294 chg coeffs, 609 upgd conss, 0 impls, 931 clqs
(round 4, medium)     44280 del vars, 45820 del conss, 22 add conss, 1968 chg bounds, 402 chg sides, 387 chg coeffs, 609 upgd conss, 0 impls, 948 clqs
(round 5, fast)       44280 del vars, 45827 del conss, 22 add conss, 1968 chg bounds, 402 chg sides, 387 chg coeffs, 609 upgd conss, 0 impls, 948 clqs
(round 6, exhaustive) 44280 del vars, 45970 del conss, 22 add conss, 1968 chg bounds, 402 chg sides, 388 chg coeffs, 609 upgd conss, 0 impls, 948 clqs
   (2.1s) running MILP presolver
   (3.1s) MILP presolver (2 rounds): 0 aggregations, 0 fixings, 984 bound changes
(round 7, medium)     44280 del vars, 45970 del conss, 22 add conss, 2952 chg bounds, 402 chg sides, 388 chg coeffs, 609 upgd conss, 0 impls, 948 clqs
   (13.8s) probing: 1000/1021 (97.9%) - 0 fixings, 0 aggregations, 421178 implications, 0 bound changes
   (14.3s) probing: 1001/1021 (98.0%) - 0 fixings, 0 aggregations, 455618 implications, 0 bound changes
   (14.3s) probing aborted: 1000/1000 successive useless probings
   (14.3s) symmetry computation started: requiring (bin +, int -, cont +), (fixed: bin -, int +, cont -)
   (14.4s) no symmetry present
   (14.4s) symmetry computation started: requiring (bin +, int +, cont +), (fixed: bin -, int -, cont -)
   (14.6s) no symmetry present
presolving (8 rounds: 8 fast, 6 medium, 4 exhaustive):
 44280 deleted vars, 45970 deleted constraints, 22 added constraints, 2952 tightened bounds, 0 added holes, 402 changed sides, 389 changed coefficients
 455618 implications, 948 cliques
presolved problem has 38413 variables (1021 bin, 984 int, 0 impl, 36408 cont) and 2474 constraints
      1 constraints of type <knapsack>
    431 constraints of type <setppc>
   2005 constraints of type <linear>
     37 constraints of type <logicor>
Presolving Time: 14.28
transformed 1/1 original solutions to the transformed problem space

 time | node  | left  |LP iter|LP it/n|mem/heur|mdpt |vars |cons |rows |cuts |sepa|confs|strbr|  dualbound   | primalbound  |  gap   | compl. 
 41.5s|     1 |     0 | 11886 |     - |   457M |   0 |  38k|2474 |2474 |   0 |  0 |   0 |   0 | 1.246795e+06 | 0.000000e+00 |    Inf | unknown
 43.1s|     1 |     0 | 12843 |     - |   463M |   0 |  38k|2474 |2475 |   1 |  1 |   0 |   0 | 9.217057e+05 | 0.000000e+00 |    Inf | unknown
 44.0s|     1 |     0 | 13112 |     - |   463M |   0 |  38k|2476 |2476 |   2 |  2 |   2 |   0 | 7.814082e+05 | 0.000000e+00 |    Inf | unknown
 45.1s|     1 |     0 | 13276 |     - |   464M |   0 |  38k|2478 |2477 |   3 |  3 |   4 |   0 | 7.354229e+05 | 0.000000e+00 |    Inf | unknown
r45.7s|     1 |     0 | 13276 |     - |shifting|   0 |  38k|2478 |2477 |   3 |  3 |   4 |   0 | 7.354229e+05 | 1.318540e+05 | 457.76%| unknown
 46.9s|     1 |     0 | 13544 |     - |   466M |   0 |  38k|2478 |2478 |   4 |  4 |   4 |   0 | 7.044414e+05 | 1.318540e+05 | 434.26%| unknown
 53.9s|     1 |     0 | 15254 |     - |   467M |   0 |  38k|2478 |2481 |   7 |  5 |   4 |   0 | 6.729063e+05 | 1.318540e+05 | 410.34%| unknown
 55.0s|     1 |     0 | 15694 |     - |   467M |   0 |  38k|2479 |2483 |   9 |  6 |   5 |   0 | 6.578367e+05 | 1.318540e+05 | 398.91%| unknown
 57.8s|     1 |     0 | 16965 |     - |   468M |   0 |  38k|2482 |2486 |  12 |  7 |   8 |   0 | 6.542984e+05 | 1.318540e+05 | 396.23%| unknown
 58.4s|     1 |     0 | 17097 |     - |   468M |   0 |  38k|2482 |2487 |  13 |  8 |   8 |   0 | 6.470097e+05 | 1.318540e+05 | 390.70%| unknown
 60.8s|     1 |     0 | 17611 |     - |   468M |   0 |  38k|2485 |2488 |  14 |  9 |  11 |   0 | 6.438365e+05 | 1.318540e+05 | 388.30%| unknown
 61.3s|     1 |     0 | 17618 |     - |   469M |   0 |  38k|2485 |2489 |  15 | 10 |  11 |   0 | 6.438362e+05 | 1.318540e+05 | 388.29%| unknown
 63.6s|     1 |     0 | 18372 |     - |   469M |   0 |  38k|2487 |2492 |  18 | 11 |  13 |   0 | 6.403592e+05 | 1.318540e+05 | 385.66%| unknown
r63.8s|     1 |     0 | 18372 |     - |shifting|   0 |  38k|2487 |2492 |  18 | 11 |  13 |   0 | 6.403592e+05 | 4.350087e+05 |  47.21%| unknown
 67.7s|     1 |     0 | 19854 |     - |   469M |   0 |  38k|2487 |2495 |  21 | 12 |  13 |   0 | 6.359778e+05 | 4.350087e+05 |  46.20%| unknown
 time | node  | left  |LP iter|LP it/n|mem/heur|mdpt |vars |cons |rows |cuts |sepa|confs|strbr|  dualbound   | primalbound  |  gap   | compl. 
 68.4s|     1 |     0 | 19854 |     - |   471M |   0 |  38k|2489 |2480 |  21 | 12 |  15 |   0 | 6.359778e+05 | 4.350087e+05 |  46.20%| unknown
 69.0s|     1 |     0 | 19855 |     - |   471M |   0 |  38k|2478 |2481 |  22 | 13 |  15 |   0 | 6.357475e+05 | 4.350087e+05 |  46.15%| unknown
 69.9s|     1 |     0 | 19860 |     - |   471M |   0 |  38k|2478 |2483 |  24 | 14 |  15 |   0 | 6.316941e+05 | 4.350087e+05 |  45.21%| unknown
 70.3s|     1 |     0 | 19860 |     - |   472M |   0 |  38k|2478 |2475 |  24 | 14 |  15 |   0 | 6.316941e+05 | 4.350087e+05 |  45.21%| unknown
 71.0s|     1 |     0 | 19880 |     - |   472M |   0 |  38k|2472 |2476 |  25 | 15 |  15 |   0 | 6.312380e+05 | 4.350087e+05 |  45.11%| unknown
 72.4s|     1 |     0 | 20112 |     - |   472M |   0 |  38k|2473 |2478 |  27 | 16 |  16 |   0 | 6.312357e+05 | 4.350087e+05 |  45.11%| unknown
r72.5s|     1 |     0 | 20112 |     - |shifting|   0 |  38k|2473 |2478 |  27 | 16 |  16 |   0 | 6.312357e+05 | 6.306059e+05 |   0.10%| unknown
 73.1s|     1 |     0 | 20231 |     - |   472M |   0 |  38k|2473 |2480 |  29 | 17 |  16 |   0 | 6.312346e+05 | 6.306059e+05 |   0.10%| unknown
 73.5s|     1 |     0 | 20231 |     - |   473M |   0 |  38k|2473 |2270 |  29 | 17 |  16 |   0 | 6.312346e+05 | 6.306059e+05 |   0.10%| unknown
 73.7s|     1 |     0 | 20231 |     - |   473M |   0 |  38k|2473 |2151 |  29 | 17 |  16 |   0 | 6.312346e+05 | 6.306059e+05 |   0.10%| unknown
 76.8s|     1 |     0 | 21039 |     - |   471M |   0 |  38k|2164 |2146 |  31 | 18 |  16 |   0 | 6.312331e+05 | 6.306059e+05 |   0.10%| unknown
 77.0s|     1 |     0 | 21039 |     - |   471M |   0 |  38k|2164 |2146 |  31 | 18 |  16 |   0 | 6.312331e+05 | 6.306059e+05 |   0.10%| unknown
 77.0s|     1 |     0 | 21039 |     - |   471M |   0 |  38k|2164 |2146 |  31 | 18 |  16 |   0 | 6.312331e+05 | 6.306059e+05 |   0.10%| unknown
 77.3s|     1 |     0 | 21119 |     - |   470M |   0 |  38k|2156 |2147 |  33 | 19 |  16 |   0 | 6.312308e+05 | 6.306059e+05 |   0.10%| unknown
 77.5s|     1 |     0 | 21119 |     - |   470M |   0 |  38k|2157 |2147 |  33 | 19 |  17 |   0 | 6.312308e+05 | 6.306059e+05 |   0.10%| unknown
 time | node  | left  |LP iter|LP it/n|mem/heur|mdpt |vars |cons |rows |cuts |sepa|confs|strbr|  dualbound   | primalbound  |  gap   | compl. 
 77.5s|     1 |     0 | 21119 |     - |   470M |   0 |  38k|2157 |2147 |  33 | 19 |  17 |   0 | 6.312308e+05 | 6.306059e+05 |   0.10%| unknown
 77.7s|     1 |     0 | 21180 |     - |   471M |   0 |  38k|2156 |2149 |  35 | 20 |  17 |   0 | 6.312293e+05 | 6.306059e+05 |   0.10%| unknown
r77.9s|     1 |     0 | 21180 |     - |shifting|   0 |  38k|2156 |2149 |  35 | 20 |  17 |   0 | 6.312293e+05 | 6.309153e+05 |   0.05%| unknown
 77.9s|     1 |     0 | 21180 |     - |   471M |   0 |  38k|2156 |2149 |  35 | 20 |  17 |   0 | 6.312293e+05 | 6.309153e+05 |   0.05%| unknown
 78.0s|     1 |     0 | 21180 |     - |   472M |   0 |  38k|2156 |2074 |  35 | 20 |  17 |   0 | 6.312293e+05 | 6.309153e+05 |   0.05%| unknown
 78.0s|     1 |     0 | 21180 |     - |   472M |   0 |  38k|2156 |2060 |  35 | 20 |  17 |   0 | 6.312293e+05 | 6.309153e+05 |   0.05%| unknown
 78.2s|     1 |     0 | 21202 |     - |   472M |   0 |  38k|2067 |2062 |  37 | 21 |  17 |   0 | 6.312288e+05 | 6.309153e+05 |   0.05%| unknown
 78.4s|     1 |     0 | 21202 |     - |   472M |   0 |  38k|2067 |2062 |  37 | 21 |  17 |   0 | 6.312288e+05 | 6.309153e+05 |   0.05%| unknown
 78.5s|     1 |     0 | 21208 |     - |   472M |   0 |  38k|2067 |2064 |  39 | 22 |  17 |   0 | 6.312279e+05 | 6.309153e+05 |   0.05%| unknown
 78.7s|     1 |     0 | 21208 |     - |   472M |   0 |  38k|2068 |2064 |  39 | 22 |  18 |   0 | 6.312279e+05 | 6.309153e+05 |   0.05%| unknown
 78.8s|     1 |     0 | 21224 |     - |   472M |   0 |  38k|2068 |2064 |  41 | 23 |  18 |   0 | 6.312270e+05 | 6.309153e+05 |   0.05%| unknown
 79.0s|     1 |     0 | 21224 |     - |   472M |   0 |  38k|2068 |2064 |  41 | 23 |  18 |   0 | 6.312270e+05 | 6.309153e+05 |   0.05%| unknown
 79.2s|     1 |     0 | 21244 |     - |   472M |   0 |  38k|2068 |2066 |  43 | 24 |  18 |   0 | 6.312264e+05 | 6.309153e+05 |   0.05%| unknown
 79.4s|     1 |     0 | 21244 |     - |   472M |   0 |  38k|2068 |2066 |  43 | 24 |  18 |   0 | 6.312264e+05 | 6.309153e+05 |   0.05%| unknown
 79.5s|     1 |     0 | 21268 |     - |   472M |   0 |  38k|2068 |2068 |  45 | 25 |  18 |   0 | 6.312256e+05 | 6.309153e+05 |   0.05%| unknown
 time | node  | left  |LP iter|LP it/n|mem/heur|mdpt |vars |cons |rows |cuts |sepa|confs|strbr|  dualbound   | primalbound  |  gap   | compl. 
 79.7s|     1 |     0 | 21268 |     - |   472M |   0 |  38k|2068 |2068 |  45 | 25 |  18 |   0 | 6.312256e+05 | 6.309153e+05 |   0.05%| unknown
 79.9s|     1 |     0 | 21268 |     - |   465M |   0 |  38k|1051 |2068 |  45 | 25 |  18 |   0 | 6.312256e+05 | 6.309153e+05 |   0.05%| unknown
 80.0s|     1 |     0 | 21271 |     - |   465M |   0 |  38k|1051 |2070 |  47 | 26 |  18 |   0 | 6.312253e+05 | 6.309153e+05 |   0.05%| unknown
 80.1s|     1 |     0 | 21271 |     - |   465M |   0 |  38k|1051 |1641 |  47 | 26 |  18 |   0 | 6.312253e+05 | 6.309153e+05 |   0.05%| unknown
 80.2s|     1 |     0 | 21297 |     - |   465M |   0 |  38k|1051 |1643 |  49 | 27 |  18 |   0 | 6.312240e+05 | 6.309153e+05 |   0.05%| unknown
r80.2s|     1 |     0 | 21297 |     - |simplero|   0 |  38k|1051 |1643 |  49 | 27 |  18 |   0 | 6.312240e+05 | 6.309733e+05 |   0.04%| unknown
 80.2s|     1 |     0 | 21297 |     - |   465M |   0 |  38k|1051 |1643 |  49 | 27 |  18 |   0 | 6.312240e+05 | 6.309733e+05 |   0.04%| unknown
 80.3s|     1 |     0 | 21297 |     - |   466M |   0 |  38k|1051 |1641 |  49 | 27 |  18 |   0 | 6.312240e+05 | 6.309733e+05 |   0.04%| unknown
 80.3s|     1 |     0 | 21297 |     - |   466M |   0 |  38k|1051 |1630 |  49 | 27 |  18 |   0 | 6.312240e+05 | 6.309733e+05 |   0.04%| unknown
 80.4s|     1 |     0 | 21304 |     - |   467M |   0 |  38k|1038 |1631 |  50 | 28 |  18 |   0 | 6.312232e+05 | 6.309733e+05 |   0.04%| unknown
 80.4s|     1 |     0 | 21304 |     - |   468M |   0 |  38k|1039 |1631 |  50 | 28 |  19 |   0 | 6.312232e+05 | 6.309733e+05 |   0.04%| unknown
 80.5s|     1 |     0 | 21314 |     - |   468M |   0 |  38k|1039 |1633 |  52 | 29 |  19 |   0 | 6.312224e+05 | 6.309733e+05 |   0.04%| unknown
 80.6s|     1 |     0 | 21314 |     - |   468M |   0 |  38k|1039 |1633 |  52 | 29 |  19 |   0 | 6.312224e+05 | 6.309733e+05 |   0.04%| unknown
 80.6s|     1 |     0 | 21317 |     - |   468M |   0 |  38k|1039 |1634 |  53 | 30 |  19 |   0 | 6.312221e+05 | 6.309733e+05 |   0.04%| unknown
 80.7s|     1 |     0 | 21317 |     - |   468M |   0 |  38k|1039 |1634 |  53 | 30 |  19 |   0 | 6.312221e+05 | 6.309733e+05 |   0.04%| unknown
 time | node  | left  |LP iter|LP it/n|mem/heur|mdpt |vars |cons |rows |cuts |sepa|confs|strbr|  dualbound   | primalbound  |  gap   | compl. 
 80.8s|     1 |     0 | 21327 |     - |   468M |   0 |  38k|1039 |1636 |  55 | 31 |  19 |   0 | 6.312219e+05 | 6.309733e+05 |   0.04%| unknown
 80.9s|     1 |     0 | 21338 |     - |   468M |   0 |  38k|1039 |1638 |  57 | 32 |  19 |   0 | 6.312209e+05 | 6.309733e+05 |   0.04%| unknown
 80.9s|     1 |     0 | 21338 |     - |   468M |   0 |  38k|1039 |1638 |  57 | 32 |  19 |   0 | 6.312209e+05 | 6.309733e+05 |   0.04%| unknown
 81.0s|     1 |     0 | 21358 |     - |   468M |   0 |  38k|1039 |1640 |  59 | 33 |  19 |   0 | 6.312197e+05 | 6.309733e+05 |   0.04%| unknown
 81.1s|     1 |     0 | 21358 |     - |   468M |   0 |  38k|1039 |1640 |  59 | 33 |  19 |   0 | 6.312197e+05 | 6.309733e+05 |   0.04%| unknown
 81.2s|     1 |     0 | 21362 |     - |   468M |   0 |  38k|1039 |1642 |  61 | 34 |  19 |   0 | 6.312193e+05 | 6.309733e+05 |   0.04%| unknown
 81.2s|     1 |     0 | 21362 |     - |   468M |   0 |  38k|1039 |1642 |  61 | 34 |  19 |   0 | 6.312193e+05 | 6.309733e+05 |   0.04%| unknown
 81.3s|     1 |     0 | 21372 |     - |   468M |   0 |  38k|1039 |1644 |  63 | 35 |  19 |   0 | 6.312185e+05 | 6.309733e+05 |   0.04%| unknown
r81.3s|     1 |     0 | 21372 |     - |simplero|   0 |  38k|1039 |1644 |  63 | 35 |  19 |   0 | 6.312185e+05 | 6.309835e+05 |   0.04%| unknown
 81.4s|     1 |     0 | 21372 |     - |   468M |   0 |  38k|1039 |1644 |  63 | 35 |  19 |   0 | 6.312185e+05 | 6.309835e+05 |   0.04%| unknown
 81.4s|     1 |     0 | 21372 |     - |   470M |   0 |  38k|1039 |1644 |  63 | 35 |  19 |   0 | 6.312185e+05 | 6.309835e+05 |   0.04%| unknown
 81.4s|     1 |     0 | 21372 |     - |   470M |   0 |  38k|1039 |1643 |  63 | 35 |  19 |   0 | 6.312185e+05 | 6.309835e+05 |   0.04%| unknown
 81.5s|     1 |     0 | 21378 |     - |   470M |   0 |  38k|1038 |1644 |  64 | 36 |  19 |   0 | 6.312177e+05 | 6.309835e+05 |   0.04%| unknown
 81.6s|     1 |     0 | 21378 |     - |   470M |   0 |  38k|1039 |1644 |  64 | 36 |  20 |   0 | 6.312177e+05 | 6.309835e+05 |   0.04%| unknown
 81.6s|     1 |     0 | 21380 |     - |   470M |   0 |  38k|1039 |1646 |  66 | 37 |  20 |   0 | 6.312175e+05 | 6.309835e+05 |   0.04%| unknown
 time | node  | left  |LP iter|LP it/n|mem/heur|mdpt |vars |cons |rows |cuts |sepa|confs|strbr|  dualbound   | primalbound  |  gap   | compl. 
 81.7s|     1 |     0 | 21380 |     - |   470M |   0 |  38k|1040 |1646 |  66 | 37 |  21 |   0 | 6.312175e+05 | 6.309835e+05 |   0.04%| unknown
 81.8s|     1 |     0 | 21413 |     - |   470M |   0 |  38k|1040 |1648 |  68 | 38 |  21 |   0 | 6.312164e+05 | 6.309835e+05 |   0.04%| unknown
 81.8s|     1 |     0 | 21413 |     - |   470M |   0 |  38k|1040 |1648 |  68 | 38 |  21 |   0 | 6.312164e+05 | 6.309835e+05 |   0.04%| unknown
 82.0s|     1 |     0 | 21479 |     - |   470M |   0 |  38k|1040 |1650 |  70 | 39 |  21 |   0 | 6.312145e+05 | 6.309835e+05 |   0.04%| unknown
 82.1s|     1 |     0 | 21479 |     - |   470M |   0 |  38k|1041 |1650 |  70 | 39 |  22 |   0 | 6.312145e+05 | 6.309835e+05 |   0.04%| unknown
 82.2s|     1 |     0 | 21488 |     - |   470M |   0 |  38k|1041 |1652 |  72 | 40 |  22 |   0 | 6.312139e+05 | 6.309835e+05 |   0.04%| unknown
 82.2s|     1 |     0 | 21488 |     - |   470M |   0 |  38k|1041 |1652 |  72 | 40 |  22 |   0 | 6.312139e+05 | 6.309835e+05 |   0.04%| unknown
 82.3s|     1 |     0 | 21490 |     - |   470M |   0 |  38k|1041 |1654 |  74 | 41 |  22 |   0 | 6.312131e+05 | 6.309835e+05 |   0.04%| unknown
 82.3s|     1 |     0 | 21490 |     - |   470M |   0 |  38k|1041 |1654 |  74 | 41 |  22 |   0 | 6.312131e+05 | 6.309835e+05 |   0.04%| unknown
 82.4s|     1 |     0 | 21500 |     - |   470M |   0 |  38k|1041 |1656 |  76 | 42 |  22 |   0 | 6.312107e+05 | 6.309835e+05 |   0.04%| unknown
 82.4s|     1 |     0 | 21500 |     - |   470M |   0 |  38k|1041 |1656 |  76 | 42 |  22 |   0 | 6.312107e+05 | 6.309835e+05 |   0.04%| unknown
 82.5s|     1 |     0 | 21510 |     - |   470M |   0 |  38k|1041 |1658 |  78 | 43 |  22 |   0 | 6.312101e+05 | 6.309835e+05 |   0.04%| unknown
 82.6s|     1 |     0 | 21510 |     - |   471M |   0 |  38k|1041 |1658 |  78 | 43 |  22 |   0 | 6.312101e+05 | 6.309835e+05 |   0.04%| unknown
 82.7s|     1 |     0 | 21510 |     - |   471M |   0 |  38k| 650 |1658 |  78 | 45 |  22 |   0 | 6.312101e+05 | 6.309835e+05 |   0.04%| unknown
 82.8s|     1 |     0 | 21516 |     - |   471M |   0 |  38k| 650 |1659 |  79 | 46 |  22 |   0 | 6.312089e+05 | 6.309835e+05 |   0.04%| unknown
 time | node  | left  |LP iter|LP it/n|mem/heur|mdpt |vars |cons |rows |cuts |sepa|confs|strbr|  dualbound   | primalbound  |  gap   | compl. 
 82.8s|     1 |     0 | 21516 |     - |   471M |   0 |  38k| 651 |1507 |  79 | 46 |  23 |   0 | 6.312089e+05 | 6.309835e+05 |   0.04%| unknown
 82.9s|     1 |     0 | 21527 |     - |   471M |   0 |  38k| 651 |1509 |  81 | 47 |  23 |   0 | 6.312063e+05 | 6.309835e+05 |   0.04%| unknown
 82.9s|     1 |     0 | 21527 |     - |   471M |   0 |  38k| 652 |1508 |  81 | 47 |  24 |   0 | 6.312063e+05 | 6.309835e+05 |   0.04%| unknown
 83.0s|     1 |     0 | 21529 |     - |   471M |   0 |  38k| 651 |1510 |  83 | 48 |  24 |   0 | 6.312049e+05 | 6.309835e+05 |   0.04%| unknown
 83.0s|     1 |     0 | 21529 |     - |   471M |   0 |  38k| 651 |1510 |  83 | 48 |  24 |   0 | 6.312049e+05 | 6.309835e+05 |   0.04%| unknown
 83.1s|     1 |     0 | 21534 |     - |   471M |   0 |  38k| 651 |1512 |  85 | 49 |  24 |   0 | 6.312041e+05 | 6.309835e+05 |   0.03%| unknown
 83.2s|     1 |     0 | 21534 |     - |   471M |   0 |  38k| 651 |1512 |  85 | 49 |  24 |   0 | 6.312041e+05 | 6.309835e+05 |   0.03%| unknown
 83.2s|     1 |     0 | 21542 |     - |   471M |   0 |  38k| 651 |1514 |  87 | 50 |  24 |   0 | 6.312034e+05 | 6.309835e+05 |   0.03%| unknown
r83.3s|     1 |     0 | 21542 |     - |simplero|   0 |  38k| 651 |1514 |  87 | 50 |  24 |   0 | 6.312034e+05 | 6.310537e+05 |   0.02%| unknown
 83.3s|     1 |     0 | 21542 |     - |   472M |   0 |  38k| 651 |1514 |  87 | 50 |  24 |   0 | 6.312034e+05 | 6.310537e+05 |   0.02%| unknown
 83.3s|     1 |     0 | 21542 |     - |   473M |   0 |  38k| 651 |1509 |  87 | 50 |  24 |   0 | 6.312034e+05 | 6.310537e+05 |   0.02%| unknown
 83.4s|     1 |     0 | 21542 |     - |   473M |   0 |  38k| 651 |1507 |  87 | 50 |  24 |   0 | 6.312034e+05 | 6.310537e+05 |   0.02%| unknown
 83.4s|     1 |     0 | 21555 |     - |   473M |   0 |  38k| 644 |1508 |  88 | 51 |  24 |   0 | 6.312010e+05 | 6.310537e+05 |   0.02%| unknown
 83.5s|     1 |     0 | 21555 |     - |   473M |   0 |  38k| 645 |1508 |  88 | 51 |  25 |   0 | 6.312010e+05 | 6.310537e+05 |   0.02%| unknown
 83.6s|     1 |     0 | 21583 |     - |   473M |   0 |  38k| 645 |1510 |  90 | 52 |  25 |   0 | 6.311987e+05 | 6.310537e+05 |   0.02%| unknown
 time | node  | left  |LP iter|LP it/n|mem/heur|mdpt |vars |cons |rows |cuts |sepa|confs|strbr|  dualbound   | primalbound  |  gap   | compl. 
 83.7s|     1 |     0 | 21583 |     - |   473M |   0 |  38k| 645 |1510 |  90 | 52 |  25 |   0 | 6.311987e+05 | 6.310537e+05 |   0.02%| unknown
 83.7s|     1 |     0 | 21587 |     - |   473M |   0 |  38k| 645 |1512 |  92 | 53 |  25 |   0 | 6.311983e+05 | 6.310537e+05 |   0.02%| unknown
 83.8s|     1 |     0 | 21587 |     - |   473M |   0 |  38k| 646 |1512 |  92 | 53 |  26 |   0 | 6.311983e+05 | 6.310537e+05 |   0.02%| unknown
 83.9s|     1 |     0 | 21587 |     - |   473M |   0 |  38k| 295 |1512 |  92 | 55 |  26 |   0 | 6.311983e+05 | 6.310537e+05 |   0.02%| unknown
 84.0s|     1 |     0 | 21597 |     - |   473M |   0 |  38k| 295 |1514 |  94 | 56 |  26 |   0 | 6.311975e+05 | 6.310537e+05 |   0.02%| unknown
 84.1s|     1 |     0 | 21597 |     - |   474M |   0 |  38k| 295 |1386 |  94 | 56 |  26 |   0 | 6.311975e+05 | 6.310537e+05 |   0.02%| unknown
 84.2s|     1 |     0 | 21601 |     - |   474M |   0 |  38k| 295 |1388 |  96 | 57 |  26 |   0 | 6.311965e+05 | 6.310537e+05 |   0.02%| unknown
 84.3s|     1 |     0 | 21606 |     - |   475M |   0 |  38k| 295 |1390 |  98 | 58 |  26 |   0 | 6.311950e+05 | 6.310537e+05 |   0.02%| unknown
r84.3s|     1 |     0 | 21606 |     - |simplero|   0 |  38k| 295 |1390 |  98 | 58 |  26 |   0 | 6.311950e+05 | 6.311003e+05 |   0.02%| unknown
 84.3s|     1 |     0 | 21606 |     - |   476M |   0 |  38k| 295 |1390 |  98 | 58 |  26 |   0 | 6.311950e+05 | 6.311003e+05 |   0.02%| unknown
 84.4s|     1 |     0 | 21606 |     - |   478M |   0 |  38k| 295 |1390 |  98 | 58 |  26 |   0 | 6.311950e+05 | 6.311003e+05 |   0.02%| unknown
 84.4s|     1 |     0 | 21606 |     - |   478M |   0 |  38k| 295 |1390 |  98 | 58 |  26 |   0 | 6.311950e+05 | 6.311003e+05 |   0.02%| unknown
 84.6s|     1 |     0 | 21654 |     - |   478M |   0 |  38k| 295 |1391 |  99 | 59 |  26 |   0 | 6.311913e+05 | 6.311003e+05 |   0.01%| unknown
 84.6s|     1 |     0 | 21654 |     - |   478M |   0 |  38k| 295 |1391 |  99 | 59 |  26 |   0 | 6.311913e+05 | 6.311003e+05 |   0.01%| unknown
 84.8s|     1 |     0 | 21673 |     - |   478M |   0 |  38k| 295 |1392 | 100 | 60 |  26 |   0 | 6.311846e+05 | 6.311003e+05 |   0.01%| unknown
 time | node  | left  |LP iter|LP it/n|mem/heur|mdpt |vars |cons |rows |cuts |sepa|confs|strbr|  dualbound   | primalbound  |  gap   | compl. 
 84.8s|     1 |     0 | 21673 |     - |   478M |   0 |  38k| 295 |1392 | 100 | 60 |  26 |   0 | 6.311846e+05 | 6.311003e+05 |   0.01%| unknown
 85.0s|     1 |     0 | 21698 |     - |   478M |   0 |  38k| 295 |1393 | 101 | 61 |  26 |   0 | 6.311822e+05 | 6.311003e+05 |   0.01%| unknown
 85.1s|     1 |     0 | 21698 |     - |   480M |   0 |  38k| 295 |1393 | 101 | 61 |  26 |   0 | 6.311822e+05 | 6.311003e+05 |   0.01%| unknown
 85.3s|     1 |     0 | 21747 |     - |   480M |   0 |  38k| 295 |1394 | 102 | 62 |  26 |   0 | 6.311785e+05 | 6.311003e+05 |   0.01%| unknown
 85.3s|     1 |     0 | 21747 |     - |   480M |   0 |  38k| 295 |1394 | 102 | 62 |  26 |   0 | 6.311785e+05 | 6.311003e+05 |   0.01%| unknown
 85.5s|     1 |     0 | 21787 |     - |   480M |   0 |  38k| 295 |1395 | 103 | 63 |  26 |   0 | 6.311759e+05 | 6.311003e+05 |   0.01%| unknown
 85.6s|     1 |     0 | 21787 |     - |   481M |   0 |  38k| 295 |1395 | 103 | 63 |  26 |   0 | 6.311759e+05 | 6.311003e+05 |   0.01%| unknown
 85.8s|     1 |     0 | 21841 |     - |   481M |   0 |  38k| 295 |1396 | 104 | 64 |  26 |   0 | 6.311624e+05 | 6.311003e+05 |   0.01%| unknown
 85.9s|     1 |     0 | 21841 |     - |   481M |   0 |  38k| 295 |1396 | 104 | 64 |  26 |   0 | 6.311624e+05 | 6.311003e+05 |   0.01%| unknown
 86.1s|     1 |     0 | 21854 |     - |   481M |   0 |  38k| 295 |1397 | 105 | 65 |  26 |   0 | 6.311565e+05 | 6.311003e+05 |   0.01%| unknown
 86.2s|     1 |     0 | 21854 |     - |   484M |   0 |  38k| 295 |1397 | 105 | 65 |  26 |   0 | 6.311565e+05 | 6.311003e+05 |   0.01%| unknown
 86.4s|     1 |     0 | 21865 |     - |   484M |   0 |  38k| 295 |1398 | 106 | 66 |  26 |   0 | 6.311555e+05 | 6.311003e+05 |   0.01%| unknown
 86.5s|     1 |     0 | 21865 |     - |   485M |   0 |  38k| 295 |1398 | 106 | 66 |  26 |   0 | 6.311555e+05 | 6.311003e+05 |   0.01%| unknown
 86.6s|     1 |     0 | 21868 |     - |   485M |   0 |  38k| 295 |1400 | 108 | 68 |  26 |   0 | 6.311548e+05 | 6.311003e+05 |   0.01%| unknown
 86.8s|     1 |     0 | 21868 |     - |   485M |   0 |  38k| 153 |1400 | 108 | 68 |  26 |   0 | 6.311548e+05 | 6.311003e+05 |   0.01%| unknown
 time | node  | left  |LP iter|LP it/n|mem/heur|mdpt |vars |cons |rows |cuts |sepa|confs|strbr|  dualbound   | primalbound  |  gap   | compl. 
 86.9s|     1 |     0 | 21872 |     - |   485M |   0 |  38k| 153 |1402 | 110 | 69 |  26 |   0 | 6.311541e+05 | 6.311003e+05 |   0.01%| unknown
 87.2s|     1 |     0 | 21874 |     - |   487M |   0 |  38k| 153 |1403 | 112 | 70 |  26 |   0 | 6.311475e+05 | 6.311003e+05 |   0.01%| unknown
 87.3s|     1 |     0 | 21874 |     - |   488M |   0 |  38k| 154 |1373 | 112 | 70 |  27 |   0 | 6.311475e+05 | 6.311003e+05 |   0.01%| unknown
 87.4s|     1 |     0 | 21877 |     - |   488M |   0 |  38k| 154 |1375 | 114 | 71 |  27 |   0 | 6.311420e+05 | 6.311003e+05 |   0.01%| unknown
 87.5s|     1 |     0 | 21877 |     - |   489M |   0 |  38k| 154 |1375 | 114 | 71 |  27 |   0 | 6.311420e+05 | 6.311003e+05 |   0.01%| unknown
 87.7s|     1 |     0 | 21880 |     - |   489M |   0 |  38k| 154 |1377 | 116 | 72 |  27 |   0 | 6.311344e+05 | 6.311003e+05 |   0.01%| unknown
 87.8s|     1 |     0 | 21880 |     - |   490M |   0 |  38k| 154 |1377 | 116 | 72 |  27 |   0 | 6.311344e+05 | 6.311003e+05 |   0.01%| unknown
 88.0s|     1 |     0 | 21882 |     - |   490M |   0 |  38k| 154 |1379 | 118 | 73 |  27 |   0 | 6.311263e+05 | 6.311003e+05 |   0.00%| unknown
 88.1s|     1 |     0 | 21882 |     - |   491M |   0 |  38k| 155 |1379 | 118 | 73 |  28 |   0 | 6.311263e+05 | 6.311003e+05 |   0.00%| unknown
 88.2s|     1 |     0 | 21892 |     - |   491M |   0 |  38k| 155 |1381 | 120 | 74 |  28 |   0 | 6.311243e+05 | 6.311003e+05 |   0.00%| unknown
 88.3s|     1 |     0 | 21892 |     - |   492M |   0 |  38k| 155 |1381 | 120 | 74 |  28 |   0 | 6.311243e+05 | 6.311003e+05 |   0.00%| unknown
 88.5s|     1 |     0 | 21907 |     - |   492M |   0 |  38k| 155 |1383 | 122 | 75 |  28 |   0 | 6.311239e+05 | 6.311003e+05 |   0.00%| unknown
 88.6s|     1 |     0 | 21907 |     - |   492M |   0 |  38k| 137 |1383 | 122 | 77 |  28 |   0 | 6.311239e+05 | 6.311003e+05 |   0.00%| unknown
d88.6s|     1 |     0 | 21907 |     - |farkasdi|   0 |  38k| 137 |1383 |   0 | 79 |  28 |   0 | 6.311239e+05 | 6.311239e+05 |   0.00%| unknown
 88.7s|     1 |     0 | 21907 |     - |   494M |   0 |  38k| 137 |1383 | 122 | 79 |  28 |   0 | 6.311239e+05 | 6.311239e+05 |   0.00%| unknown

SCIP Status        : problem is solved [optimal solution found]
Solving Time (sec) : 88.66
Solving Nodes      : 1
Primal Bound       : +6.31123880364876e+05 (34 solutions)
Dual Bound         : +6.31123880364876e+05
Gap                : 0.00 %
Solve Status: optimal
Solve Time: 88.77 seconds
